000 -99 000 000 -99 000 000 000 -99 -99 -99 -99 -99 000 000 -99 000 000 000 000 000 000 -99 000 000 -99 000 000 000 001 001
000 -99 000 000 000 000 000 000 -99 -99 -99 -99 -99 000 000 000 000 000 000 000 000 000 -99 -99 000 000 -99 000 000 001 000
000 -99 000 000 000 000 000 000 000 000 -99 -99 -99 -99 000 000 -99 -99 -99 -99 000 000 000 000 000 000 -99 000 000 001 000
000 -99 000 000 000 000 000 000 000 000 -99 -99 -99 -99 -99 000 000 -99 -99 -99 000 000 000 000 000 000 -99 000 000 000 000
000 000 000 000 000 000 000 000 000 -99 -99 -99 000 000 -99 000 000 -99 -99 -99 000 000 000 000 000 000 -99 -99 000 -99 000
000 000 000 000 000 000 000 000 000 -99 -99 -99 000 000 -99 000 000 000 -99 -99 000 000 000 000 000 -99 -99 -99 -99 -99 001
000 000 000 000 000 000 000 000 000 -99 -99 -99 000 000 000 000 000 000 -99 -99 000 000 000 000 000 -99 -99 -99 -99 -99 001
000 000 -99 000 000 000 -99 000 000 000 000 000 000 000 000 000 000 000 000 -99 000 000 000 000 000 -99 -99 -99 -99 000 000
000 000 000 000 000 000 -99 000 000 000 -99 000 -99 -99 000 000 000 000 000 000 000 -99 -99 000 000 -99 -99 -99 -99 000 000
000 000 000 000 000 000 000 000 000 000 000 000 000 000 000 000 000 000 000 000 000 000 000 000 000 000 -99 000 000 000 000
000 000 000 000 000 000 000 000 000 000 000 000 000 000 000 000 000 000 000 000 000 000 000 -99 000 000 -99 000 000 000 000
000 000 000 000 -99 -99 000 000 000 000 000 000 001 002 000 000 000 000 000 000 000 000 -99 000 000 000 000 000 000 000 000
000 000 000 000 000 -99 000 000 -99 000 000 000 003 004 001 000 000 000 000 000 001 001 -99 -99 000 000 000 000 000 000 000
000 000 000 000 000 000 000 000 -99 -99 000 000 001 010 003 002 002 000 001 000 001 000 001 000 000 000 000 000 000 000 000
000 000 000 000 000 000 -99 -99 -99 -99 000 000 001 002 002 004 003 001 002 002 003 001 001 000 000 000 000 000 000 000 000
000 -99 000 000 000 000 000 000 000 -99 000 000 001 002 002 004 003 001 002 001 002 002 000 000 000 000 000 000 000 000 000
000 000 000 000 000 000 000 000 000 -99 000 000 001 001 003 003 002 001 001 002 002 002 001 000 000 000 000 000 000 000 000
000 000 000 -99 -99 000 -99 000 000 -99 000 000 000 000 002 001 002 000 000 000 003 001 000 000 000 000 001 001 000 000 000
000 000 000 -99 -99 -99 -99 000 000 -99 000 000 000 000 000 000 001 000 000 000 001 001 000 000 000 000 001 001 001 000 000
000 000 000 000 000 -99 -99 000 000 -99 000 000 000 000 000 000 001 000 000 000 000 000 000 000 000 000 000 000 000 000 000
000 000 000 000 000 000 -99 000 000 -99 -99 000 000 000 000 000 001 001 000 000 000 000 000 -99 -99 000 000 000 000 000 -99
000 000 000 000 000 000 000 000 000 -99 -99 -99 -99 000 000 000 001 000 000 000 000 000 000 -99 -99 000 000 000 000 000 -99
000 000 000 000 000 000 000 000 000 000 -99 -99 -99 000 000 000 001 000 000 000 000 000 000 -99 -99 -99 -99 -99 -99 -99 -99
000 000 000 -99 -99 -99 000 000 000 000 -99 -99 -99 000 000 000 000 000 000 000 000 000 000 -99 -99 -99 -99 -99 -99 -99 -99
000 000 000 000 000 000 000 000 000 000 000 -99 -99 000 000 000 000 000 000 000 000 000 000 -99 -99 -99 -99 -99 -99 -99 -99
000 000 000 000 000 000 000 000 000 000 000 -99 -99 000 000 000 000 000 000 000 000 -99 -99 -99 -99 -99 -99 -99 -99 -99 000
000 000 000 000 000 000 000 000 000 000 -99 -99 -99 -99 000 000 000 000 000 000 000 000 -99 -99 -99 -99 -99 -99 -99 -99 000
000 000 000 000 000 000 000 000 000 000 -99 -99 -99 -99 000 000 000 000 -99 000 000 000 -99 -99 -99 -99 -99 -99 -99 -99 000
000 000 000 -99 000 000 000 000 000 000 -99 -99 -99 -99 000 000 000 000 000 000 000 000 -99 -99 -99 -99 -99 -99 -99 -99 000
000 000 000 -99 000 000 000 000 000 000 000 -99 -99 000 000 -99 -99 000 000 000 000 000 -99 -99 000 000 -99 -99 -99 -99 -99
-99 000 000 000 000 000 000 000 000 000 000 -99 -99 000 000 -99 -99 000 000 000 000 000 -99 -99 000 000 -99 -99 -99 -99 -99
-99 000 000 000 000 000 000 000 000 -99 -99 -99 -99 000 000 -99 000 000 000 000 -99 -99 000 000 000 000 -99 -99 -99 -99 -99
000 000 000 000 000 000 000 000 000 -99 -99 -99 -99 000 -99 -99 000 000 000 -99 -99 -99 000 000 000 000 -99 000 -99 000 -99
000 000 000 000 000 000 000 000 000 000 -99 -99 -99 -99 000 000 000 000 000 -99 -99 -99 -99 000 000 000 000 000 000 000 000
000 000 000 000 000 000 000 -99 000 000 -99 -99 -99 000 000 000 000 000 -99 000 000 -99 -99 000 000 000 000 000 000 000 000
000 000 000 000 000 000 000 000 000 -99 -99 -99 -99 000 000 000 000 000 -99 000 000 -99 -99 000 000 000 000 000 000 000 000
000 000 -99 000 000 -99 000 000 000 -99 -99 -99 -99 000 000 000 000 000 000 000 000 -99 000 000 000 000 000 000 000 001 000
000 -99 -99 000 000 -99 000 000 000 -99 -99 -99 000 000 000 000 000 000 000 000 000 000 -99 000 000 000 000 -99 000 001 000
-99 -99 -99 -99 000 -99 -99 -99 -99 -99 -99 -99 000 000 000 000 000 000 000 000 000 000 000 000 000 000 000 -99 -99 001 000
-99 000 000 000 000 -99 -99 -99 -99 -99 -99 000 000 000 000 001 000 000 000 000 000 000 -99 000 -99 000 000 -99 -99 000 000
000 000 000 000 000 -99 -99 -99 -99 -99 000 000 000 000 002 001 001 001 005 001 002 000 000 -99 -99 000 000 -99 -99 000 000
000 000 -99 000 -99 -99 -99 -99 -99 -99 000 000 000 002 002 004 003 003 009 005 004 002 000 000 000 -99 -99 -99 -99 000 000
-99 -99 -99 -99 -99 -99 -99 -99 -99 000 000 000 001 015 010 003 002 004 016 014 006 000 000 000 000 000 -99 -99 -99 -99 -99
-99 -99 -99 -99 -99 -99 -99 -99 -99 000 -99 000 003 013 011 003 003 012 023 009 002 000 000 -99 000 000 -99 000 -99 -99 -99
-99 -99 -99 -99 -99 -99 -99 -99 -99 -99 000 000 002 018 010 003 010 015 017 002 001 000 000 000 000 000 000 000 -99 -99 -99
-99 -99 -99 -99 -99 -99 -99 -99 -99 -99 000 000 001 005 005 012 020 012 005 003 001 000 000 000 000 000 000 000 -99 000 000
-99 -99 -99 -99 -99 -99 -99 -99 -99 -99 000 000 000 001 007 020 020 020 014 009 000 000 000 000 000 000 000 000 002 000 000
-99 -99 -99 -99 -99 -99 -99 -99 -99 -99 -99 000 000 001 007 007 008 010 011 023 002 000 000 000 000 000 000 000 002 000 000
-99 -99 -99 -99 -99 -99 -99 -99 -99 -99 -99 -99 001 004 004 001 004 003 013 010 001 000 000 000 000 000 000 000 002 000 000
-99 -99 -99 -99 -99 -99 -99 -99 -99 -99 -99 -99 001 002 001 001 000 001 005 005 001 001 003 000 000 000 000 001 000 000 000
-99 -99 -99 -99 -99 -99 -99 -99 -99 -99 -99 -99 000 000 000 000 000 001 002 001 001 010 013 001 000 000 000 000 000 000 000
-99 -99 -99 -99 -99 -99 -99 -99 -99 -99 -99 -99 000 000 000 000 003 002 000 000 001 020 007 001 000 000 -99 -99 -99 -99 000
-99 -99 -99 -99 -99 -99 -99 -99 -99 -99 -99 -99 -99 -99 000 001 006 005 002 000 002 020 006 000 000 -99 -99 -99 -99 -99 001
-99 -99 -99 -99 -99 -99 -99 -99 -99 -99 -99 -99 -99 -99 000 001 015 002 002 000 004 026 001 000 -99 -99 -99 -99 -99 -99 -99
-99 -99 -99 -99 -99 -99 -99 -99 -99 -99 000 -99 -99 -99 000 002 005 002 003 001 003 002 000 000 -99 -99 -99 -99 -99 -99 -99
